207,481
477,6
716,454
802,318
803,646
512,529
620,21
994,507
852,461
441,406
533,258
444,369
756,-68
639,364
521,325
893,618
738,388
708,321
787,512
677,377
1161,406
1071,406
471,406
681,106
704,554
536,511
463,564
436,887
427,660
602,909
436,-75
1194,240
745,605
746,-8
607,178
927,745
685,377
868,311
